MARKOV
230
 2 2 2 2 2 2 2 2 2 2 2 2 2 2 2 2 2 2 2 2 2 2 2 2 2 2 2 2 2 2 2 2 2 2 2 2 2 2 2 2 2 2 2 2 2 2 2 2 2 2 2 2 2 2 2 2 2 2 2 2 2 2 2 2 2 2 2 2 2 2 2 2 2 2 2 2 2 2 2 2 2 2 2 2 2 2 2 2 2 2 2 2 2 2 2 2 2 2 2 2 2 2 2 2 2 2 2 2 2 2 2 2 2 2 2 2 2 2 2 2 2 2 2 2 2 2 2 2 2 2 2 2 2 2 2 2 2 2 2 2 2 2 2 2 2 2 2 2 2 2 2 2 2 2 2 2 2 2 2 2 2 2 2 2 2 2 2 2 2 2 2 2 2 2 2 2 2 2 2 2 2 2 2 2 2 2 2 2 2 2 2 2 2 2 2 2 2 2 2 2 2 2 2 2 2 2 2 2 2 2 2 2 2 2 2 2 2 2 2 2 2 2 2 2 2 2 2 2 2 2
857
1	0 
1	1 
1	2 
1	3 
1	4 
1	5 
1	6 
1	7 
1	8 
1	9 
1	10 
1	11 
1	12 
1	13 
1	14 
1	15 
1	16 
1	17 
1	18 
1	19 
1	20 
1	21 
1	22 
1	23 
1	24 
1	25 
1	26 
1	27 
1	28 
1	29 
1	30 
1	31 
1	32 
1	33 
1	34 
1	35 
1	36 
1	37 
1	38 
1	39 
1	40 
1	41 
1	42 
1	43 
1	44 
1	45 
1	46 
1	47 
1	48 
1	49 
1	50 
1	51 
1	52 
1	53 
1	54 
1	55 
1	56 
1	57 
1	58 
1	59 
1	60 
1	61 
1	62 
1	63 
1	64 
1	65 
1	66 
1	67 
1	68 
1	69 
1	70 
1	71 
1	72 
1	73 
1	74 
1	75 
1	76 
1	77 
1	78 
1	79 
1	80 
1	81 
1	82 
1	83 
1	84 
1	85 
1	86 
1	87 
1	88 
1	89 
1	90 
1	91 
1	92 
1	93 
1	94 
1	95 
1	96 
1	97 
1	98 
1	99 
1	100 
1	101 
1	102 
1	103 
1	104 
1	105 
1	106 
1	107 
1	108 
1	109 
1	110 
1	111 
1	112 
1	113 
1	114 
1	115 
1	116 
1	117 
1	118 
1	119 
1	120 
1	121 
1	122 
1	123 
1	124 
1	125 
1	126 
1	127 
1	128 
1	129 
1	130 
1	131 
1	132 
1	133 
1	134 
1	135 
1	136 
1	137 
1	138 
1	139 
1	140 
1	141 
1	142 
1	143 
1	144 
1	145 
1	146 
1	147 
1	148 
1	149 
1	150 
1	151 
1	152 
1	153 
1	154 
1	155 
1	156 
1	157 
1	158 
1	159 
1	160 
1	161 
1	162 
1	163 
1	164 
1	165 
1	166 
1	167 
1	168 
1	169 
1	170 
1	171 
1	172 
1	173 
1	174 
1	175 
1	176 
1	177 
1	178 
1	179 
1	180 
1	181 
1	182 
1	183 
1	184 
1	185 
1	186 
1	187 
1	188 
1	189 
1	190 
1	191 
1	192 
1	193 
1	194 
1	195 
1	196 
1	197 
1	198 
1	199 
1	200 
1	201 
1	202 
1	203 
1	204 
1	205 
1	206 
1	207 
1	208 
1	209 
1	210 
1	211 
1	212 
1	213 
1	214 
1	215 
1	216 
1	217 
1	218 
1	219 
1	220 
1	221 
1	222 
1	223 
1	224 
1	225 
1	226 
1	227 
1	228 
1	229 
2	1 32 
2	1 143 
2	1 144 
2	2 3 
2	2 5 
2	2 6 
2	2 10 
2	2 130 
2	2 133 
2	3 4 
2	3 5 
2	3 44 
2	3 130 
2	4 5 
2	4 44 
2	4 47 
2	5 6 
2	5 8 
2	6 7 
2	6 8 
2	6 9 
2	6 10 
2	7 9 
2	7 10 
2	7 96 
2	8 9 
2	10 94 
2	10 96 
2	10 133 
2	11 13 
2	11 25 
2	11 31 
2	11 53 
2	11 159 
2	12 13 
2	12 28 
2	12 102 
2	12 106 
2	12 222 
2	12 223 
2	13 25 
2	13 28 
2	13 159 
2	13 222 
2	14 17 
2	14 18 
2	14 131 
2	14 187 
2	14 190 
2	15 16 
2	15 17 
2	15 74 
2	15 189 
2	15 221 
2	16 17 
2	16 18 
2	16 130 
2	16 221 
2	17 18 
2	17 189 
2	17 190 
2	18 130 
2	18 131 
2	18 133 
2	19 21 
2	19 22 
2	19 176 
2	20 21 
2	20 22 
2	20 125 
2	20 126 
2	21 22 
2	21 126 
2	21 176 
2	23 24 
2	23 25 
2	23 26 
2	23 30 
2	24 26 
2	24 27 
2	24 88 
2	24 90 
2	25 26 
2	25 28 
2	25 30 
2	25 31 
2	26 27 
2	26 28 
2	27 28 
2	27 90 
2	27 91 
2	27 104 
2	28 102 
2	28 104 
2	29 30 
2	29 31 
2	29 53 
2	29 62 
2	30 31 
2	31 53 
2	32 33 
2	32 179 
2	32 180 
2	33 151 
2	33 178 
2	33 180 
2	34 35 
2	34 37 
2	34 38 
2	34 122 
2	34 173 
2	35 36 
2	35 37 
2	35 38 
2	36 37 
2	36 39 
2	36 107 
2	36 109 
2	37 39 
2	37 164 
2	37 169 
2	37 173 
2	38 121 
2	38 122 
2	39 103 
2	39 109 
2	39 164 
2	40 67 
2	40 71 
2	40 117 
2	40 119 
2	40 177 
2	40 179 
2	40 180 
2	41 43 
2	41 113 
2	41 114 
2	41 192 
2	41 228 
2	42 43 
2	42 55 
2	42 56 
2	42 149 
2	42 157 
2	42 214 
2	42 216 
2	43 56 
2	43 113 
2	43 192 
2	43 193 
2	43 216 
2	44 46 
2	44 47 
2	44 130 
2	44 221 
2	45 46 
2	45 124 
2	45 129 
2	45 220 
2	46 47 
2	46 220 
2	46 221 
2	48 49 
2	48 50 
2	48 147 
2	48 149 
2	48 154 
2	48 157 
2	49 50 
2	49 51 
2	49 68 
2	49 153 
2	49 154 
2	49 155 
2	50 51 
2	50 147 
2	51 68 
2	51 69 
2	51 79 
2	51 147 
2	51 218 
2	52 53 
2	52 54 
2	52 59 
2	52 62 
2	52 160 
2	52 162 
2	53 62 
2	53 159 
2	53 160 
2	54 59 
2	54 61 
2	54 66 
2	54 162 
2	54 226 
2	55 56 
2	55 58 
2	55 157 
2	56 57 
2	56 58 
2	56 193 
2	56 194 
2	57 58 
2	57 93 
2	57 194 
2	58 156 
2	58 157 
2	59 60 
2	59 61 
2	59 62 
2	60 61 
2	60 62 
2	60 65 
2	61 65 
2	61 66 
2	63 64 
2	63 66 
2	63 98 
2	63 100 
2	63 224 
2	63 225 
2	64 65 
2	64 66 
2	64 100 
2	65 66 
2	66 226 
2	67 71 
2	67 119 
2	67 123 
2	67 170 
2	67 171 
2	68 69 
2	68 70 
2	68 153 
2	69 70 
2	69 71 
2	69 171 
2	69 217 
2	69 218 
2	70 71 
2	70 153 
2	70 181 
2	71 171 
2	71 177 
2	72 73 
2	72 75 
2	72 76 
2	72 124 
2	72 128 
2	72 185 
2	73 74 
2	73 76 
2	73 112 
2	73 185 
2	73 200 
2	74 76 
2	74 189 
2	74 200 
2	74 220 
2	74 221 
2	75 128 
2	75 184 
2	75 185 
2	75 229 
2	76 124 
2	76 220 
2	77 80 
2	77 81 
2	77 146 
2	77 148 
2	77 198 
2	78 79 
2	78 80 
2	78 81 
2	78 83 
2	78 218 
2	78 219 
2	79 80 
2	79 147 
2	79 218 
2	80 81 
2	80 147 
2	80 148 
2	81 85 
2	81 197 
2	81 198 
2	82 84 
2	82 85 
2	82 86 
2	82 161 
2	82 222 
2	82 223 
2	83 84 
2	83 85 
2	83 219 
2	84 85 
2	84 166 
2	84 168 
2	84 223 
2	85 86 
2	85 197 
2	86 161 
2	86 163 
2	86 196 
2	86 197 
2	87 88 
2	87 89 
2	87 90 
2	87 91 
2	87 92 
2	88 89 
2	88 90 
2	90 91 
2	91 92 
2	91 104 
2	91 108 
2	92 108 
2	92 110 
2	93 174 
2	93 194 
2	93 195 
2	94 95 
2	94 96 
2	94 131 
2	94 133 
2	95 96 
2	95 97 
2	95 99 
2	95 131 
2	96 97 
2	97 99 
2	97 101 
2	98 99 
2	98 100 
2	98 101 
2	98 132 
2	98 224 
2	99 101 
2	99 131 
2	99 132 
2	100 101 
2	102 104 
2	102 105 
2	102 106 
2	103 105 
2	103 106 
2	103 109 
2	103 164 
2	103 167 
2	104 105 
2	104 108 
2	105 106 
2	105 108 
2	105 109 
2	106 166 
2	106 167 
2	106 223 
2	107 109 
2	107 110 
2	108 109 
2	108 110 
2	109 110 
2	111 112 
2	111 114 
2	111 115 
2	111 116 
2	111 182 
2	111 185 
2	112 115 
2	112 185 
2	112 199 
2	112 200 
2	113 114 
2	113 116 
2	113 204 
2	113 216 
2	114 116 
2	114 182 
2	114 183 
2	114 228 
2	115 116 
2	115 199 
2	115 202 
2	115 203 
2	116 203 
2	116 204 
2	117 118 
2	117 119 
2	117 120 
2	117 143 
2	117 144 
2	117 179 
2	118 120 
2	118 121 
2	118 144 
2	119 120 
2	119 122 
2	119 123 
2	120 121 
2	120 122 
2	121 122 
2	122 123 
2	122 173 
2	123 170 
2	123 173 
2	124 127 
2	124 128 
2	124 129 
2	124 220 
2	125 126 
2	125 127 
2	125 128 
2	126 128 
2	126 176 
2	126 229 
2	127 128 
2	127 129 
2	130 133 
2	130 221 
2	131 132 
2	131 133 
2	131 187 
2	132 139 
2	132 187 
2	132 224 
2	134 135 
2	134 136 
2	134 137 
2	134 203 
2	134 204 
2	134 215 
2	135 137 
2	135 146 
2	135 212 
2	135 213 
2	135 215 
2	136 137 
2	136 138 
2	136 142 
2	136 201 
2	136 202 
2	136 203 
2	137 138 
2	137 210 
2	137 212 
2	138 140 
2	138 141 
2	138 142 
2	139 140 
2	139 141 
2	139 187 
2	139 188 
2	139 211 
2	139 224 
2	140 141 
2	140 142 
2	140 188 
2	140 191 
2	141 208 
2	141 210 
2	141 211 
2	142 186 
2	142 191 
2	142 201 
2	143 144 
2	143 179 
2	145 146 
2	145 147 
2	145 148 
2	145 149 
2	145 213 
2	145 214 
2	146 148 
2	146 198 
2	146 212 
2	146 213 
2	147 148 
2	147 149 
2	149 157 
2	149 214 
2	150 151 
2	150 152 
2	150 153 
2	150 155 
2	150 158 
2	151 153 
2	151 178 
2	151 181 
2	152 156 
2	152 158 
2	153 155 
2	153 181 
2	154 155 
2	154 156 
2	154 157 
2	154 158 
2	155 158 
2	156 157 
2	156 158 
2	159 160 
2	159 161 
2	159 222 
2	160 161 
2	160 162 
2	160 163 
2	161 163 
2	161 222 
2	162 163 
2	162 196 
2	162 205 
2	162 226 
2	163 196 
2	164 165 
2	164 167 
2	164 169 
2	165 167 
2	165 168 
2	165 169 
2	165 172 
2	166 167 
2	166 168 
2	166 223 
2	167 168 
2	168 172 
2	168 219 
2	169 170 
2	169 172 
2	169 173 
2	170 171 
2	170 172 
2	170 173 
2	171 172 
2	171 217 
2	172 217 
2	172 219 
2	174 175 
2	174 195 
2	174 227 
2	174 228 
2	175 176 
2	175 227 
2	176 227 
2	176 229 
2	177 178 
2	177 180 
2	177 181 
2	178 180 
2	178 181 
2	179 180 
2	182 183 
2	182 184 
2	182 185 
2	183 184 
2	183 227 
2	183 228 
2	184 185 
2	184 227 
2	184 229 
2	186 189 
2	186 190 
2	186 191 
2	186 200 
2	186 201 
2	187 188 
2	187 190 
2	188 190 
2	188 191 
2	189 190 
2	189 200 
2	190 191 
2	192 193 
2	192 194 
2	192 195 
2	192 228 
2	193 194 
2	194 195 
2	195 228 
2	196 197 
2	196 198 
2	196 205 
2	196 207 
2	197 198 
2	198 207 
2	198 209 
2	198 212 
2	199 200 
2	199 201 
2	199 202 
2	200 201 
2	201 202 
2	202 203 
2	203 204 
2	204 215 
2	204 216 
2	205 206 
2	205 207 
2	205 226 
2	206 207 
2	206 208 
2	206 211 
2	206 225 
2	206 226 
2	207 208 
2	207 209 
2	208 209 
2	208 210 
2	208 211 
2	209 210 
2	209 212 
2	210 212 
2	211 224 
2	211 225 
2	213 214 
2	213 215 
2	214 215 
2	214 216 
2	215 216 
2	217 218 
2	217 219 
2	218 219 
2	220 221 
2	222 223 
2	224 225 
2	225 226 
2	227 228 
2	227 229 
0	

2
 0.252912 1
2
 1 0.317249
2
 1 0.131076
2
 1 0.218066
2
 1 0.0509224
2
 1 0.0460982
2
 1 0.0901156
2
 1 0.0271543
2
 1 0.0367688
2
 1 0.0285353
2
 1 0.190379
2
 0.222825 1
2
 0.108986 1
2
 0.21441 1
2
 1 0.731052
2
 0.854325 1
2
 1 0.649715
2
 1 0.56484
2
 0.56521 1
2
 1 0.11954
2
 1 0.707412
2
 1 0.457487
2
 1 0.101716
2
 1 0.0235155
2
 1 0.0188959
2
 1 0.0914635
2
 1 0.0256557
2
 1 0.0352054
2
 1 0.138535
2
 1 0.105811
2
 1 0.0281408
2
 1 0.295546
2
 1 0.317995
2
 1 0.366856
2
 1 0.21859
2
 1 0.128486
2
 1 0.0853643
2
 1 0.144715
2
 1 0.0344847
2
 1 0.346328
2
 1 0.31368
2
 1 0.844737
2
 0.798805 1
2
 0.348006 1
2
 1 0.24713
2
 1 0.466904
2
 1 0.0818493
2
 1 0.278226
2
 1 0.87206
2
 0.446718 1
2
 0.627042 1
2
 1 0.441606
2
 1 0.646356
2
 0.474892 1
2
 0.560341 1
2
 1 0.135248
2
 1 0.368968
2
 1 0.10309
2
 1 0.295005
2
 1 0.0399856
2
 1 0.0306403
2
 1 0.105685
2
 1 0.118779
2
 1 0.0795869
2
 1 0.037249
2
 1 0.0424536
2
 1 0.0629054
2
 1 0.373998
2
 0.755416 1
2
 1 0.45767
2
 1 0.940152
2
 1 0.526876
2
 0.410309 1
2
 0.149189 1
2
 0.52489 1
2
 1 0.921226
2
 0.278518 1
2
 1 0.851324
2
 0.22479 1
2
 0.430269 1
2
 1 0.862589
2
 0.924138 1
2
 0.408873 1
2
 0.370136 1
2
 0.424003 1
2
 1 0.860662
2
 1 0.667075
2
 1 0.0226378
2
 1 0.0389006
2
 1 0.047925
2
 1 0.0253021
2
 1 0.0284147
2
 1 0.0724024
2
 1 0.505192
2
 1 0.143152
2
 1 0.084249
2
 1 0.0385435
2
 1 0.019877
2
 1 0.18359
2
 1 0.196466
2
 1 0.0399952
2
 1 0.0256228
2
 1 0.226011
2
 1 0.278906
2
 1 0.0440941
2
 1 0.149732
2
 1 0.36915
2
 1 0.0364393
2
 1 0.0830149
2
 1 0.16822
2
 1 0.0742135
2
 0.558652 1
2
 1 0.934038
2
 0.234776 1
2
 0.915599 1
2
 1 0.776251
2
 0.408998 1
2
 1 0.419882
2
 1 0.0488217
2
 1 0.134335
2
 1 0.0997826
2
 1 0.0609492
2
 1 0.131538
2
 1 0.455079
2
 0.25648 1
2
 1 0.0759028
2
 1 0.703895
2
 1 0.128351
2
 0.811983 1
2
 1 0.328754
2
 1 0.769174
2
 0.608522 1
2
 0.321927 1
2
 1 0.672652
2
 1 0.980241
2
 1 0.852027
2
 0.933894 1
2
 0.803888 1
2
 1 0.837255
2
 0.747086 1
2
 0.867729 1
2
 0.654999 1
2
 1 0.926525
2
 1 0.279509
2
 1 0.137245
2
 0.583963 1
2
 0.975075 1
2
 0.582049 1
2
 0.756488 1
2
 0.976663 1
2
 1 0.135372
2
 1 0.33149
2
 1 0.111396
2
 1 0.162845
2
 1 0.434165
2
 1 0.20883
2
 1 0.229507
2
 1 0.606416
2
 1 0.228988
2
 0.400558 1
2
 0.318946 1
2
 0.693019 1
2
 0.318277 1
2
 0.771293 1
2
 1 0.433798
2
 1 0.200875
2
 1 0.840766
2
 1 0.308546
2
 0.826027 1
2
 1 0.436972
2
 1 0.307258
2
 1 0.341641
2
 1 0.210072
2
 1 0.0984704
2
 1 0.530714
2
 1 0.0895993
2
 1 0.219448
2
 1 0.171472
2
 1 0.268794
2
 1 0.0688348
2
 1 0.102659
2
 1 0.306818
2
 0.320863 1
2
 0.99299 1
2
 1 0.257603
2
 0.35528 1
2
 1 0.77254
2
 0.396519 1
2
 1 0.940483
2
 1 0.755833
2
 1 0.565546
2
 0.991783 1
2
 1 0.438165
2
 1 0.462396
2
 1 0.156801
2
 1 0.147059
2
 1 0.896867
2
 1 0.88377
2
 1 0.985435
2
 0.998672 1
2
 1 0.86935
2
 0.990456 1
2
 0.67846 1
2
 0.605914 1
2
 0.383076 1
2
 0.358486 1
2
 0.231269 1
2
 1 0.765113
2
 0.839873 1
2
 0.899525 1
2
 0.703769 1
2
 0.636034 1
2
 0.686431 1
2
 0.579309 1
2
 0.508213 1
2
 0.816237 1
2
 0.31922 1
2
 1 0.687072
2
 0.406505 1
2
 1 0.629724
2
 0.0636532 1
2
 0.607508 1
2
 0.583984 1
2
 0.552348 1
2
 0.253516 1
2
 1 0.997126
2
 0.981132 1
2
 1 0.502903
2
 1 0.506765
2
 1 0.6901
4
 0.920711 0.22932 0.22932 1
4
 0.921901 0.227953 0.227953 1
4
 0.922005 0.226648 0.226648 1
4
 1 0.349199 0.349199 0.960723
4
 1 0.352771 0.352771 0.95631
4
 1 0.352467 0.352467 0.95336
4
 1 0.349895 0.349895 0.954538
4
 1 0.346196 0.346196 0.964289
4
 1 0.347225 0.347225 0.959051
4
 1 0.349963 0.349963 0.964182
4
 1 0.352054 0.352054 0.959429
4
 1 0.346018 0.346018 0.96923
4
 1 0.345493 0.345493 0.967435
4
 1 0.353542 0.353542 0.959753
4
 1 0.34748 0.34748 0.969557
4
 1 0.349211 0.349211 0.969339
4
 1 0.355349 0.355349 0.952077
4
 1 0.358096 0.358096 0.950635
4
 1 0.355452 0.355452 0.945736
4
 1 0.357788 0.357788 0.947703
4
 1 0.358944 0.358944 0.94425
4
 1 0.352452 0.352452 0.950314
4
 1 0.359358 0.359358 0.940863
4
 1 0.352858 0.352858 0.946904
4
 1 0.352664 0.352664 0.943295
4
 1 0.36172 0.36172 0.94282
4
 1 0.34786 0.34786 0.951808
4
 1 0.349687 0.349687 0.947861
4
 1 0.34721 0.34721 0.955986
4
 1 0.295083 0.295083 0.980496
4
 1 0.296817 0.296817 0.975006
4
 1 0.299573 0.299573 0.972655
4
 1 0.300868 0.300868 0.973639
4
 1 0.298319 0.298319 0.978132
4
 1 0.290066 0.290066 0.988678
4
 1 0.288827 0.288827 0.987901
4
 1 0.286399 0.286399 0.992906
4
 1 0.284394 0.284394 0.999114
4
 1 0.289605 0.289605 0.992071
4
 1 0.286926 0.286926 0.996985
4
 1 0.294385 0.294385 0.978571
4
 1 0.291414 0.291414 0.983307
4
 1 0.295874 0.295874 0.981708
4
 1 0.292199 0.292199 0.987458
4
 1 0.333972 0.333972 0.97485
4
 1 0.337184 0.337184 0.969119
4
 1 0.33701 0.33701 0.965642
4
 1 0.333451 0.333451 0.969935
4
 1 0.331806 0.331806 0.975945
4
 1 0.335907 0.335907 0.98012
4
 1 0.333362 0.333362 0.982268
4
 1 0.330844 0.330844 0.990299
4
 1 0.329938 0.329938 0.988632
4
 1 0.335048 0.335048 0.985418
4
 1 0.335365 0.335365 0.977646
4
 1 0.338591 0.338591 0.971899
4
 1 0.340216 0.340216 0.973265
4
 1 0.337062 0.337062 0.980781
4
 1 0.336026 0.336026 0.974029
4
 1 0.329406 0.329406 0.986136
4
 1 0.330666 0.330666 0.98089
4
 1 0.340886 0.340886 0.969664
4
 1 0.339083 0.339083 0.96483
4
 1 0.341899 0.341899 0.964397
4
 0.95412 0.295985 0.295985 1
4
 0.951124 0.295189 0.295189 1
4
 0.951232 0.292036 0.292036 1
4
 0.9596 0.302189 0.302189 1
4
 0.956587 0.301376 0.301376 1
4
 0.966684 0.309082 0.309082 1
4
 0.96392 0.305383 0.305383 1
4
 0.955192 0.29875 0.29875 1
4
 0.962515 0.302722 0.302722 1
4
 0.9553 0.295558 0.295558 1
4
 1 0.294752 0.294752 0.967261
4
 1 0.296942 0.296942 0.969383
4
 1 0.295219 0.295219 0.969491
4
 1 0.30045 0.30045 0.96428
4
 1 0.292227 0.292227 0.97107
4
 1 0.289477 0.289477 0.974785
4
 1 0.289517 0.289517 0.970089
4
 1 0.28824 0.28824 0.974019
4
 1 0.294397 0.294397 0.9732
4
 1 0.293127 0.293127 0.977801
4
 1 0.299614 0.299614 0.967969
4
 1 0.298864 0.298864 0.970745
4
 1 0.289935 0.289935 0.977032
4
 1 0.291426 0.291426 0.977911
4
 1 0.288684 0.288684 0.981652
4
 1 0.285979 0.285979 0.979999
4
 1 0.283895 0.283895 0.984134
4
 1 0.285024 0.285024 0.985628
4
 1 0.287729 0.287729 0.987512
4
 1 0.286491 0.286491 0.986514
4
 1 0.305298 0.305298 0.962604
4
 1 0.304534 0.304534 0.965364
4
 1 0.30585 0.30585 0.966341
4
 1 0.309474 0.309474 0.96147
4
 1 0.302396 0.302396 0.965635
4
 1 0.302943 0.302943 0.969384
4
 0.924232 0.235897 0.235897 1
4
 0.925375 0.233991 0.233991 1
4
 0.926466 0.235893 0.235893 1
4
 0.928704 0.242267 0.242267 1
4
 0.928444 0.2409 0.2409 1
4
 0.928184 0.238743 0.238743 1
4
 0.966807 0.253696 0.253696 1
4
 0.968763 0.25669 0.25669 1
4
 0.961285 0.25015 0.25015 1
4
 0.95789 0.249498 0.249498 1
4
 0.962689 0.253615 0.253615 1
4
 0.974875 0.257646 0.257646 1
4
 0.971869 0.257502 0.257502 1
4
 0.964367 0.250941 0.250941 1
4
 0.976847 0.260688 0.260688 1
4
 0.981245 0.263443 0.263443 1
4
 0.984502 0.263642 0.263642 1
4
 0.986272 0.266258 0.266258 1
4
 0.978219 0.263296 0.263296 1
4
 0.975969 0.263545 0.263545 1
4
 0.971431 0.260425 0.260425 1
4
 0.967729 0.25742 0.25742 1
4
 0.953276 0.244156 0.244156 1
4
 0.955473 0.246789 0.246789 1
4
 0.985939 0.26953 0.26953 1
4
 0.987657 0.268922 0.268922 1
4
 0.980363 0.266331 0.266331 1
4
 0.94247 0.245543 0.245543 1
4
 0.943475 0.247308 0.247308 1
4
 0.935668 0.238693 0.238693 1
4
 0.940884 0.242951 0.242951 1
4
 0.937245 0.243259 0.243259 1
4
 0.933149 0.23854 0.23854 1
4
 0.93425 0.240479 0.240479 1
4
 0.960197 0.284617 0.284617 1
4
 0.964087 0.288475 0.288475 1
4
 0.964086 0.29089 0.29089 1
4
 0.957774 0.284832 0.284832 1
4
 0.957773 0.286737 0.286737 1
4
 0.958044 0.278908 0.278908 1
4
 0.953108 0.273086 0.273086 1
4
 0.952199 0.27366 0.27366 1
4
 0.959283 0.276322 0.276322 1
4
 0.952841 0.271545 0.271545 1
4
 0.961278 0.279248 0.279248 1
4
 0.961817 0.281017 0.281017 1
4
 0.953322 0.276345 0.276345 1
4
 0.963059 0.285462 0.285462 1
4
 0.956753 0.281856 0.281856 1
4
 0.955465 0.279194 0.279194 1
4
 0.962952 0.283774 0.283774 1
4
 1 0.3425 0.3425 0.979076
4
 1 0.345274 0.345274 0.974414
4
 1 0.343042 0.343042 0.972828
4
 1 0.339861 0.339861 0.980341
4
 1 0.339146 0.339146 0.988745
4
 0.999864 0.332931 0.332931 1
4
 1 0.335002 0.335002 0.998845
4
 1 0.33506 0.33506 0.994256
4
 1 0.344207 0.344207 0.978857
4
 1 0.337327 0.337327 0.989022
4
 1 0.33881 0.33881 0.98481
4
 0.954717 0.266948 0.266948 1
4
 0.958961 0.270545 0.270545 1
4
 0.962846 0.273756 0.273756 1
4
 0.958907 0.273138 0.273138 1
4
 0.951879 0.266602 0.266602 1
4
 0.952467 0.268416 0.268416 1
4
 0.957509 0.267616 0.267616 1
4
 0.95794 0.266383 0.266383 1
4
 0.953111 0.262374 0.262374 1
4
 0.948093 0.259239 0.259239 1
4
 0.950438 0.263715 0.263715 1
4
 0.948572 0.261195 0.261195 1
4
 0.962198 0.269973 0.269973 1
4
 0.965662 0.274441 0.274441 1
4
 0.957779 0.264685 0.264685 1
4
 0.959394 0.264405 0.264405 1
4
 0.967725 0.272433 0.272433 1
4
 0.966096 0.273177 0.273177 1
4
 0.964633 0.268871 0.268871 1
4
 1 0.306298 0.306298 0.970583
4
 1 0.310294 0.310294 0.970857
4
 1 0.310515 0.310515 0.967211
4
 1 0.309927 0.309927 0.965691
4
 1 0.305841 0.305841 0.97457
4
 1 0.308391 0.308391 0.974352
4
 1 0.307857 0.307857 0.965473
4
 1 0.301675 0.301675 0.974843
4
 1 0.303798 0.303798 0.974351
4
 1 0.312465 0.312465 0.967265
4
 1 0.31416 0.31416 0.967211
4
 1 0.316123 0.316123 0.967049
4
 1 0.310328 0.310328 0.974407
4
 1 0.314194 0.314194 0.970748
4
 0.94841 0.270576 0.270576 1
4
 0.943683 0.26574 0.26574 1
4
 0.94905 0.268485 0.268485 1
4
 0.943417 0.268683 0.268683 1
4
 0.942782 0.266299 0.266299 1
4
 0.949635 0.273941 0.273941 1
4
 0.945697 0.271833 0.271833 1
4
 0.938714 0.263881 0.263881 1
4
 0.938977 0.268047 0.268047 1
4
 0.941617 0.269364 0.269364 1
4
 0.937451 0.259651 0.259651 1
4
 0.943418 0.264241 0.264241 1
4
 1 0.315399 0.315399 0.960068
4
 1 0.314383 0.314383 0.963579
4
 1 0.312095 0.312095 0.962119
4
 1 0.31711 0.31711 0.960015
4
 1 0.314802 0.314802 0.95856
4
 1 0.320636 0.320636 0.955927
4
 1 0.319603 0.319603 0.959423
4
 1 0.318063 0.318063 0.963363
4
 1 0.326399 0.326399 0.95797
4
 1 0.322182 0.322182 0.962986
4
 1 0.326733 0.326733 0.962014
4
 1 0.327778 0.327778 0.958294
4
 1 0.324087 0.324087 0.966182
4
 1 0.32159 0.32159 0.96743
4
 1 0.325809 0.325809 0.954266
4
 1 0.32424 0.32424 0.958185
4
 1 0.329872 0.329872 0.953516
4
 1 0.3216 0.3216 0.959261
4
 1 0.318098 0.318098 0.966886
4
 0.947883 0.250689 0.250689 1
4
 0.945279 0.246272 0.246272 1
4
 0.949481 0.249174 0.249174 1
4
 0.952258 0.251889 0.251889 1
4
 0.953167 0.253888 0.253888 1
4
 0.954558 0.260426 0.260426 1
4
 0.950173 0.257462 0.257462 1
4
 0.947934 0.257586 0.257586 1
4
 0.951775 0.25719 0.25719 1
4
 0.952524 0.256292 0.256292 1
4
 0.957834 0.259563 0.259563 1
4
 0.960419 0.26234 0.26234 1
4
 0.961389 0.264545 0.264545 1
4
 0.948148 0.253376 0.253376 1
4
 0.945171 0.254385 0.254385 1
4
 0.943527 0.251583 0.251583 1
4
 0.954184 0.255714 0.255714 1
4
 0.942628 0.248357 0.248357 1
4
 0.989088 0.318905 0.318905 1
4
 0.982501 0.315109 0.315109 1
4
 0.993039 0.323078 0.323078 1
4
 0.990644 0.323083 0.323083 1
4
 0.983494 0.317228 0.317228 1
4
 0.982832 0.313889 0.313889 1
4
 0.997343 0.323871 0.323871 1
4
 0.994546 0.322824 0.322824 1
4
 0.987812 0.314988 0.314988 1
4
 0.984324 0.313643 0.313643 1
4
 0.992761 0.318588 0.318588 1
4
 1 0.327674 0.327674 0.998675
4
 1 0.326917 0.326917 0.994199
4
 0.99953 0.323804 0.323804 1
4
 1 0.330528 0.330528 0.995205
4
 1 0.331981 0.331981 0.990967
4
 0.978427 0.313206 0.313206 1
4
 0.972184 0.306088 0.306088 1
4
 0.977768 0.30991 0.30991 1
4
 0.971093 0.306304 0.306304 1
4
 0.99611 0.327054 0.327054 1
4
 1 0.330386 0.330386 0.998003
4
 0.984551 0.287652 0.287652 1
4
 0.989651 0.290376 0.290376 1
4
 0.986986 0.292132 0.292132 1
4
 0.983832 0.288793 0.288793 1
4
 0.993994 0.295627 0.295627 1
4
 0.976294 0.277836 0.277836 1
4
 0.979809 0.281494 0.281494 1
4
 0.984884 0.284159 0.284159 1
4
 0.981021 0.27922 0.27922 1
4
 0.973175 0.274203 0.274203 1
4
 0.976789 0.275304 0.275304 1
4
 0.976349 0.279825 0.279825 1
4
 0.971209 0.276942 0.276942 1
4
 0.969738 0.272577 0.272577 1
4
 0.984939 0.286194 0.286194 1
4
 0.974705 0.280589 0.280589 1
4
 0.979148 0.284634 0.284634 1
4
 0.99171 0.288598 0.288598 1
4
 0.995559 0.293079 0.293079 1
4
 0.994385 0.294128 0.294128 1
4
 0.99584 0.286983 0.286983 1
4
 0.997407 0.289776 0.289776 1
4
 1 0.292993 0.292993 0.997546
4
 1 0.29368 0.29368 0.993577
4
 1 0.291289 0.291289 0.994693
4
 1 0.288595 0.288595 0.99962
4
 0.986268 0.280849 0.280849 1
4
 0.98782 0.283581 0.283581 1
4
 0.978051 0.275035 0.275035 1
4
 0.991822 0.285515 0.285515 1
4
 0.989375 0.280669 0.280669 1
4
 0.984498 0.277626 0.277626 1
4
 0.994779 0.28446 0.28446 1
4
 0.998415 0.292211 0.292211 1
4
 0.997238 0.292769 0.292769 1
4
 1 0.295849 0.295849 0.992574
4
 1 0.298746 0.298746 0.990792
4
 1 0.298515 0.298515 0.99408
4
 1 0.296069 0.296069 0.997715
4
 1 0.283593 0.283593 0.976866
4
 1 0.281629 0.281629 0.977799
4
 1 0.282342 0.282342 0.980823
4
 1 0.280284 0.280284 0.984963
4
 1 0.277838 0.277838 0.987732
4
 1 0.285297 0.285297 0.972269
4
 1 0.286019 0.286019 0.975277
4
 1 0.282682 0.282682 0.983361
4
 1 0.278173 0.278173 0.990287
4
 1 0.281739 0.281739 0.989009
4
 1 0.279174 0.279174 0.992068
4
 1 0.276738 0.276738 0.994857
4
 1 0.274201 0.274201 0.997485
4
 0.941404 0.274297 0.274297 1
4
 0.941246 0.271189 0.271189 1
4
 0.942145 0.27334 0.27334 1
4
 1 0.343587 0.343587 0.95277
4
 1 0.347669 0.347669 0.94818
4
 1 0.342363 0.342363 0.956737
4
 1 0.345207 0.345207 0.956308
4
 1 0.345392 0.345392 0.948819
4
 1 0.341612 0.341612 0.950472
4
 1 0.338197 0.338197 0.955716
4
 1 0.34012 0.34012 0.957382
4
 1 0.34567 0.34567 0.945893
4
 1 0.33847 0.33847 0.952769
4
 1 0.338987 0.338987 0.949084
4
 1 0.332108 0.332108 0.959641
4
 1 0.330209 0.330209 0.957541
4
 1 0.332616 0.332616 0.95593
4
 1 0.329699 0.329699 0.963907
4
 1 0.326491 0.326491 0.965423
4
 1 0.335599 0.335599 0.954321
4
 1 0.336992 0.336992 0.959696
4
 1 0.332655 0.332655 0.962285
4
 1 0.33368 0.33368 0.952233
4
 1 0.284082 0.284082 0.991512
4
 1 0.282297 0.282297 0.996928
4
 1 0.283313 0.283313 0.998721
4
 0.993943 0.275966 0.275966 1
4
 0.992158 0.276462 0.276462 1
4
 0.99099 0.27241 0.27241 1
4
 0.983671 0.269786 0.269786 1
4
 0.987157 0.273211 0.273211 1
4
 1 0.281082 0.281082 0.99592
4
 1 0.280285 0.280285 0.993574
4
 0.996849 0.279438 0.279438 1
4
 1 0.278524 0.278524 0.999
4
 0.995675 0.275343 0.275343 1
4
 0.991768 0.279264 0.279264 1
4
 0.990043 0.276648 0.276648 1
4
 0.997184 0.283036 0.283036 1
4
 0.990935 0.269124 0.269124 1
4
 0.99361 0.269297 0.269297 1
4
 0.998027 0.27521 0.27521 1
4
 1 0.275188 0.275188 0.99928
4
 0.995397 0.271969 0.271969 1
4
 0.980573 0.306938 0.306938 1
4
 0.971531 0.298356 0.298356 1
4
 0.978869 0.303557 0.303557 1
4
 0.975467 0.299891 0.299891 1
4
 0.97377 0.302076 0.302076 1
4
 0.97711 0.305627 0.305627 1
4
 0.983331 0.307933 0.307933 1
4
 0.981565 0.310034 0.310034 1
4
 0.987425 0.311358 0.311358 1
4
 0.989978 0.314922 0.314922 1
4
 0.96696 0.291754 0.291754 1
4
 0.970878 0.293254 0.293254 1
4
 0.971532 0.291959 0.291959 1
4
 0.966852 0.287621 0.287621 1
4
 0.970877 0.295709 0.295709 1
4
 0.969188 0.297864 0.297864 1
4
 0.964844 0.294258 0.294258 1
4
 0.960627 0.289996 0.289996 1
4
 0.97821 0.300863 0.300863 1
4
 0.985708 0.307928 0.307928 1
4
 0.986096 0.306367 0.306367 1
4
 0.982614 0.303031 0.303031 1
4
 0.979199 0.299372 0.299372 1
4
 0.975468 0.295917 0.295917 1
4
 0.934409 0.234475 0.234475 1
4
 0.938457 0.239402 0.239402 1
4
 0.93751 0.237407 0.237407 1
4
 0.929072 0.232746 0.232746 1
4
 0.929177 0.231414 0.231414 1
4
 0.930743 0.235055 0.235055 1
4
 0.938669 0.236669 0.236669 1
4
 0.941626 0.237307 0.237307 1
4
 0.930326 0.230695 0.230695 1
4
 0.942736 0.241641 0.241641 1
4
 0.947884 0.244905 0.244905 1
4
 0.947884 0.246544 0.246544 1
4
 0.94475 0.240274 0.240274 1
4
 0.946927 0.242865 0.242865 1
4
 0.94991 0.243519 0.243519 1
4
 0.952098 0.247792 0.247792 1
4
 0.956869 0.250207 0.250207 1
4
 0.954882 0.252168 0.252168 1
4
 0.956868 0.251881 0.251881 1
4
 0.989087 0.324808 0.324808 1
4
 0.986536 0.321132 0.321132 1
4
 0.994992 0.329475 0.329475 1
4
 0.999584 0.331052 0.331052 1
4
 0.96962 0.309627 0.309627 1
4
 0.978426 0.317941 0.317941 1
4
 0.975902 0.314343 0.314343 1
4
 0.973112 0.310581 0.310581 1
4
 0.959601 0.298683 0.298683 1
4
 0.965817 0.303738 0.303738 1
4
 0.981949 0.318921 0.318921 1
4
 0.990365 0.327206 0.327206 1
4
 1 0.34354 0.34354 0.965752
4
 1 0.339346 0.339346 0.978526
4
 1 0.334547 0.334547 0.963962
4
 1 0.341723 0.341723 0.960937
4
 1 0.335329 0.335329 0.965642
4
 1 0.326786 0.326786 0.971515
4
 1 0.331014 0.331014 0.968248
4
 1 0.327029 0.327029 0.968084
4
 0.987317 0.299366 0.299366 1
4
 0.991984 0.305631 0.305631 1
4
 0.992932 0.303975 0.303975 1
4
 0.985765 0.301466 0.301466 1
4
 0.982008 0.297988 0.297988 1
4
 0.982064 0.296639 0.296639 1
4
 0.992319 0.30192 0.30192 1
4
 0.985711 0.294865 0.294865 1
4
 0.990371 0.298537 0.298537 1
4
 0.981679 0.293221 0.293221 1
4
 0.981458 0.294634 0.294634 1
4
 0.99701 0.308239 0.308239 1
4
 1 0.311855 0.311855 0.999513
4
 1 0.313439 0.313439 0.999963
4
 0.996561 0.312778 0.312778 1
4
 0.993321 0.30906 0.30906 1
4
 0.989814 0.305695 0.305695 1
4
 1 0.309869 0.309869 0.998559
4
 1 0.307673 0.307673 0.99839
4
 0.996004 0.303133 0.303133 1
4
 1 0.316151 0.316151 0.990351
4
 1 0.314188 0.314188 0.990518
4
 1 0.314154 0.314154 0.995537
4
 1 0.321566 0.321566 0.981053
4
 1 0.31957 0.31957 0.981218
4
 1 0.32755 0.32755 0.973208
4
 1 0.324785 0.324785 0.977918
4
 1 0.320472 0.320472 0.977698
4
 1 0.323606 0.323606 0.973043
4
 1 0.317791 0.317791 0.985802
4
 1 0.317757 0.317757 0.990797
4
 1 0.322977 0.322977 0.982487
4
 1 0.320665 0.320665 0.98752
4
 1 0.313718 0.313718 0.985967
4
 1 0.311962 0.311962 0.99035
4
 1 0.316709 0.316709 0.98243
4
 1 0.318503 0.318503 0.995482
4
 1 0.31864 0.31864 0.99269
4
 1 0.316172 0.316172 0.999458
4
 0.925012 0.228993 0.228993 1
4
 0.926571 0.232596 0.232596 1
4
 0.977609 0.287109 0.287109 1
4
 0.970063 0.279794 0.279794 1
4
 0.974485 0.283828 0.283828 1
4
 0.966095 0.279162 0.279162 1
4
 0.97361 0.285507 0.285507 1
4
 0.968103 0.282118 0.282118 1
4
 0.981569 0.289067 0.289067 1
4
 0.991708 0.295907 0.295907 1
4
 0.989371 0.296049 0.296049 1
4
 0.980687 0.290777 0.290777 1
4
 0.973993 0.281702 0.281702 1
4
 0.965607 0.277071 0.277071 1
4
 0.955198 0.271666 0.271666 1
4
 0.963656 0.279373 0.279373 1
4
 0.932309 0.247674 0.247674 1
4
 0.93236 0.25028 0.25028 1
4
 0.938032 0.252003 0.252003 1
4
 0.938506 0.253905 0.253905 1
4
 0.935612 0.252918 0.252918 1
4
 0.93719 0.250136 0.250136 1
4
 0.931211 0.244451 0.244451 1
4
 0.935561 0.24738 0.24738 1
4
 0.934194 0.254386 0.254386 1
4
 0.934824 0.253685 0.253685 1
4
 0.94342 0.256428 0.256428 1
4
 0.941304 0.251704 0.251704 1
4
 0.945753 0.260857 0.260857 1
4
 0.942201 0.26056 0.26056 1
4
 0.948198 0.265165 0.265165 1
4
 0.942837 0.259842 0.259842 1
4
 0.940986 0.257359 0.257359 1
4
 0.942783 0.262333 0.262333 1
4
 0.937452 0.257067 0.257067 1
4
 1 0.301224 0.301224 0.978847
4
 1 0.297828 0.297828 0.983972
4
 1 0.295403 0.295403 0.985077
4
 1 0.299925 0.299925 0.983475
4
 1 0.305874 0.305874 0.978134
4
 1 0.302862 0.302862 0.98171
4
 1 0.299448 0.299448 0.98685
4
 1 0.294129 0.294129 0.989735
4
 1 0.305387 0.305387 0.98149
4
 1 0.305151 0.305151 0.984747
4
 1 0.308756 0.308756 0.979564
4
 1 0.312267 0.312267 0.974243
4
 1 0.302146 0.302146 0.988348
4
 0.97701 0.267216 0.267216 1
4
 0.981574 0.269967 0.269967 1
4
 0.97356 0.263427 0.263427 1
4
 0.980472 0.270609 0.270609 1
4
 0.977339 0.270206 0.270206 1
4
 0.972467 0.264053 0.264053 1
4
 0.971594 0.265173 0.265173 1
4
 0.986768 0.27598 0.27598 1
4
 0.983615 0.275569 0.275569 1
4
 0.993886 0.282352 0.282352 1
4
 0.981904 0.272988 0.272988 1
4
 0.973013 0.267504 0.267504 1
4
 0.976296 0.271879 0.271879 1
4
 0.963337 0.257598 0.257598 1
4
 0.968163 0.261412 0.261412 1
4
 0.965341 0.257304 0.257304 1
4
 0.958588 0.256938 0.256938 1
4
 0.962471 0.25869 0.25869 1
4
 0.959666 0.254625 0.254625 1
4
 0.96339 0.260743 0.260743 1
4
 0.962092 0.261748 0.261748 1
4
 0.96599 0.263533 0.263533 1
4
 0.970557 0.266814 0.266814 1
4
 0.945642 0.281857 0.281857 1
4
 0.944952 0.277833 0.277833 1
4
 0.949686 0.284307 0.284307 1
4
 0.94926 0.282309 0.282309 1
4
 0.949738 0.288259 0.288259 1
4
 0.951126 0.287419 0.287419 1
4
 0.9538 0.290765 0.290765 1
4
 0.958578 0.29655 0.29655 1
4
 0.933672 0.24368 0.24368 1
4
 0.933411 0.241499 0.241499 1
4
 0.938034 0.2466 0.2466 1
4
 0.930689 0.240896 0.240896 1
4
 0.935299 0.245984 0.245984 1
4
 0.929332 0.236814 0.236814 1
4
 0.967067 0.297927 0.297927 1
4
 0.969187 0.301361 0.301361 1
4
 0.974754 0.305123 0.305123 1
4
 0.964843 0.297712 0.297712 1
4
 0.958956 0.29211 0.29211 1
4
 0.958526 0.290057 0.290057 1
4
 0.972512 0.304903 0.304903 1
4
 0.961058 0.295477 0.295477 1
4
 0.965872 0.301356 0.301356 1
4
 1 0.323642 0.323642 0.993751
4
 1 0.32488 0.32488 0.988464
4
 1 0.321418 0.321418 0.992189
4
 0.999979 0.320704 0.320704 1
4
 1 0.318928 0.318928 0.998954
4
 1 0.328987 0.328987 0.97463
4
 1 0.33015 0.33015 0.975945
4
 1 0.327364 0.327364 0.980669
4
 1 0.323875 0.323875 0.984365
4
 1 0.327269 0.327269 0.987244
4
 1 0.323069 0.323069 0.998786
4
 1 0.32502 0.32502 0.985692
4
 0.953053 0.279405 0.279405 1
4
 0.949101 0.277254 0.277254 1
4
 0.950007 0.279454 0.279454 1
4
 0.954337 0.283956 0.283956 1
4
 0.947823 0.274636 0.274636 1
4
 0.944794 0.274684 0.274684 1
4
 0.950007 0.281324 0.281324 1
4
 1 0.299438 0.299438 0.995254
4
 1 0.300865 0.300865 0.996428
4
 1 0.30548 0.30548 0.986408
4
 1 0.304122 0.304122 0.990182
4
 0.999928 0.298379 0.298379 1
4
 1 0.303068 0.303068 0.994975
4
 1 0.302225 0.302225 0.998782
4
 0.996396 0.299591 0.299591 1
4
 0.992372 0.314917 0.314917 1
4
 0.993432 0.313501 0.313501 1
4
 0.990202 0.309775 0.309775 1
4
 0.996001 0.31709 0.31709 1
4
 0.993823 0.311912 0.311912 1
4
 0.987094 0.304849 0.304849 1
4
 0.97986 0.29805 0.29805 1
4
 0.976181 0.293277 0.293277 1
4
 0.971424 0.290233 0.290233 1
4
 1 0.311341 0.311341 0.979564
4
 1 0.307716 0.307716 0.984969
4
 1 0.312603 0.312603 0.975886
4
 1 0.309958 0.309958 0.983312
4
 1 0.31262 0.31262 0.981933
4
 1 0.3156 0.3156 0.978411
4
 1 0.316232 0.316232 0.97501
4
 1 0.314881 0.314881 0.974244
4
 1 0.308979 0.308979 0.987351
4
 1 0.305496 0.305496 0.99252
4
 1 0.30812 0.30812 0.991128
4
 1 0.309888 0.309888 0.99035
4
 1 0.314604 0.314604 0.98243
4
 1 0.306395 0.306395 0.995535
4
 0.998861 0.302739 0.302739 1
4
 0.999646 0.304716 0.304716 1
4
 1 0.320709 0.320709 0.974245
4
 1 0.318238 0.318238 0.975504
4
 0.971152 0.285723 0.285723 1
4
 0.976456 0.290549 0.290549 1
4
 0.970934 0.2871 0.2871 1
4
 0.966202 0.28412 0.28412 1
4
 0.971479 0.288919 0.288919 1
4
 0.965664 0.266772 0.266772 1
4
 0.969249 0.267843 0.267843 1
4
 0.970229 0.270094 0.270094 1
4
 1 0.334728 0.334728 0.9903
4
 1 0.289036 0.289036 0.995754
4
 1 0.321351 0.321351 0.970859
4
 1 0.317513 0.317513 0.971349
4
 0.954765 0.28788 0.28788 1
4
 0.959979 0.295686 0.295686 1
1
 1

